1000
[200,202,203,206,207,211,213,214,216,221,222,223,225,227,228,230,232,233,234,236,237,238,240,243,244,246,248,249,251,253,257,258,262,263,266,267,270,271,273,274,276,281,283,284,285,286,287,289,292,294,295,297,298,299,301,302,303,304,305,307,309,311,314,315,316,317,318,319,320,321,323,325,326,329,331,332,334,335,336,337,338,341,342,344,345,346,347,348,349,351,352,356,360,362,364,365,366,368,369,371,373,374,375,378,379,380,381,382,390,392,395,397,398,399,403,407,408,411,414,415,416,417,418,419,420,421,422,424,425,429,430,431,433,435,436,437,438,440,441,442,443,445,446,447,448,449,452,454,456,458,459,460,462,467,468,470,471,472,474,476,477,479,480,481,484,486,487,489,493,495,496,498,499,503,504,505,507,508,513,514,515,516,518,520,523,525,527,529,530,533,536,538,540,541,542,543,544,545,546,547,548,550,554,555,557,559,560,562,563,564,565,567,569,570,571,573,574,576,577,578,580,582,583,591,594,596,597,598,600,601,602,603,604,606,607,613,614,615,616,617,620,621,622,623,625,626,627,628,629,630,634,635,636,639,640,645,646,648,649,650,652,653,654,656,657,659,664,666,668,669,673,674,676,677,681,685,686,690,691,692,694,695,696,697,698,701,703,704,705,706,709,710,711,713,714,716,717,721,722,724,725,728,729,730,731,733,735,736,739,740,741,744,746,747,749,750,752,753,755,757,760,764,765,766,768,769,771,772,774,777,778,779,780,783,785,788,789,791,792,793,794,796,797,799]
[1,3,2,1,1,2,1,1,2,2,1,1,1,1,2,2,2,1,1,1,1,2,2,3,1,3,1,1,2,1,2,2,1,1,2,1,2,3,2,1,1,2,2,1,2,3,1,1,2,1,3,1,2,1,1,1,1,1,2,1,4,2,2,4,1,1,1,1,1,1,1,1,2,1,1,1,1,1,1,2,1,3,1,1,1,2,1,2,1,2,1,1,4,2,1,1,1,3,1,2,1,1,1,1,1,3,1,1,3,1,2,1,3,3,2,2,1,2,1,1,2,1,1,1,1,1,1,1,1,1,2,3,1,1,1,1,3,2,1,1,1,1,1,1,1,1,1,1,1,1,1,1,2,1,1,1,1,2,2,2,1,1,1,1,2,2,1,2,2,3,1,5,2,1,1,1,2,1,1,1,1,2,1,1,2,1,2,1,2,1,1,1,1,2,2,2,1,1,2,2,2,1,1,1,3,1,2,1,4,1,1,1,1,1,1,1,1,1,2,3,2,2,1,1,2,1,1,2,3,1,1,1,1,2,1,1,2,2,1,3,1,1,1,2,3,2,1,1,1,2,1,2,1,2,1,2,1,1,2,1,1,1,2,4,1,1,2,1,2,1,1,1,2,1,1,1,1,1,2,1,1,1,4,1,1,2,1,2,1,1,1,2,1,3,1,1,1,1,1,1,2,1,1,1,1,1,3,1,1,1,1,1,1,1,1,1,1,1,1,2,1,2,1,1,1,1,1,1,1,1,1,1,1,1,4,1,2,1,2,1,1,2,1,1]
